solution status: optimal solution found
objective value:                                   16
x38                                                 1 	(obj:1)
x39                                                 1 	(obj:1)
x41                                                 1 	(obj:1)
x58                                                 1 	(obj:1)
x59                                                 1 	(obj:1)
x60                                                 1 	(obj:1)
x62                                                 1 	(obj:1)
x74                                                 1 	(obj:1)
x78                                                 1 	(obj:1)
x82                                                 1 	(obj:1)
x84                                                 1 	(obj:1)
x93                                                 1 	(obj:1)
x94                                                 1 	(obj:1)
x97                                                 1 	(obj:1)
x99                                                 1 	(obj:1)
x101                                                1 	(obj:1)
one.thingy.devices[3].thingy.v0_y                   23 	(obj:0)
one.thingy.devices[3].thingy.v0_z                   21 	(obj:0)
one.thingy.devices[1].thingy.v0_y                   23 	(obj:0)
one.thingy.devices[1].thingy.v0_z                   23 	(obj:0)
one.thingy.devices[1].thingy.v12_y                   23 	(obj:0)
one.thingy.devices[1].thingy.v12_z                   24 	(obj:0)
$_19__3_y                                          23 	(obj:0)
$_19__3_z                                          20 	(obj:0)
one.ctrl_s[0].flush_y                              20 	(obj:0)
one.ctrl_s[0].flush_z                              18 	(obj:0)
$_25__3_y                                          20 	(obj:0)
$_25__3_z                                          19 	(obj:0)
one.thingy.devices[0].thingy.v0_y                   24 	(obj:0)
one.thingy.devices[0].thingy.v0_z                   24 	(obj:0)
one.thingy.devices[3].thingy.v12_y                   22 	(obj:0)
one.thingy.devices[3].thingy.v12_z                   21 	(obj:0)
one.thingy.devices[2].thingy.v0_y                   20 	(obj:0)
one.thingy.devices[2].thingy.v0_z                   24 	(obj:0)
$_23__3_y                                          22 	(obj:0)
$_23__3_z                                          19 	(obj:0)
$_20__3_y                                          21 	(obj:0)
$_20__3_z                                          20 	(obj:0)
$_18__3_y                                         -22 	(obj:0)
$_18__3_z                                          20 	(obj:0)
one.thingy.devices[0].thingy.v12_y                   24 	(obj:0)
one.thingy.devices[0].thingy.v12_z                   23 	(obj:0)
one.thingy.devices[2].thingy.v12_y                   20 	(obj:0)
one.thingy.devices[2].thingy.v12_z                   23 	(obj:0)
$_22__3_y                                           6 	(obj:0)
$_22__3_z                                          21 	(obj:0)
$_21__3_y                                          -1 	(obj:0)
$_21__3_z                                          20 	(obj:0)
$_24__3_y                                           2 	(obj:0)
$_24__3_z                                          19 	(obj:0)
one.ctrl_s[0].hole_y                               24 	(obj:0)
one.ctrl_s[0].hole_z                               20 	(obj:0)
